Route #1: 1 8 17 19 30 33 20 22 42 1
Route #2: 1 7 35 38 14 5 10 12 9 1
Route #3: 1 6 18 41 26 29 13 4 36 1
Route #4: 1 24 39 31 1
Route #5: 1 3 37 15 27 25 40 34 21 1
Route #6: 1 2 16 44 32 28 1
Route #7: 1 23 43 11 1
cost 1065.4090715901061
